100
1000
250
0 0
-34 15
-34 15
-34 15
-34 15
-34 15
-34 15
-34 15
-34 15
-34 15
-34 15
-34 15
-34 15
-34 15
-34 15
-34 15
-34 15
-34 15
-34 15
-34 15
-34 15
-34 15
-34 15
-34 15
-34 15
-34 15
-6 15
-6 15
-6 15
-6 15
-6 15
-6 15
-6 15
-6 15
-6 15
-6 15
-6 15
-6 15
-6 15
-6 15
-6 15
-6 15
-6 15
-6 15
-6 15
-6 15
-6 15
-6 15
-6 15
-6 15
-6 15
-24 1
-24 1
-24 1
-24 1
-24 1
-24 1
-24 1
-24 1
-24 1
-24 1
-24 1
-24 1
-24 1
-24 1
-24 1
-24 1
-24 1
-24 1
-24 1
-24 1
-24 1
-24 1
-24 1
-24 1
-24 1
38 -13
38 -13
38 -13
38 -13
38 -13
38 -13
38 -13
38 -13
38 -13
38 -13
38 -13
38 -13
38 -13
38 -13
38 -13
38 -13
38 -13
38 -13
38 -13
38 -13
38 -13
38 -13
38 -13
38 -13
38 -13
13 6
13 6
13 6
13 6
13 6
13 6
13 6
13 6
13 6
13 6
13 6
13 6
13 6
13 6
13 6
13 6
13 6
13 6
13 6
13 6
13 6
13 6
13 6
13 6
13 6
17 -11
20 -40
10 -15
-22 -28
-9 -9
-19 40
-6 34
1 -10
20 -1
-11 15
7 -22
33 -5
-1 37
7 -10
-8 -21
25 -23
-35 28
15 -40
26 -9
11 -13
1 36
-8 37
20 37
9 4
38 31
17 -11
20 -40
10 -15
-22 -28
-9 -9
-19 40
-6 34
1 -10
20 -1
-11 15
7 -22
33 -5
-1 37
7 -10
-8 -21
25 -23
-35 28
15 -40
26 -9
11 -13
1 36
-8 37
20 37
9 4
38 31
17 -11
20 -40
10 -15
-22 -28
-9 -9
-19 40
-6 34
1 -10
20 -1
-11 15
7 -22
33 -5
-1 37
7 -10
-8 -21
25 -23
-35 28
15 -40
26 -9
11 -13
1 36
-8 37
20 37
9 4
38 31
17 -11
20 -40
10 -15
-22 -28
-9 -9
-19 40
-6 34
1 -10
20 -1
-11 15
7 -22
33 -5
-1 37
7 -10
-8 -21
25 -23
-35 28
15 -40
26 -9
11 -13
1 36
-8 37
20 37
9 4
38 31
17 -11
20 -40
10 -15
-22 -28
-9 -9
-19 40
-6 34
1 -10
20 -1
-11 15
7 -22
33 -5
-1 37
7 -10
-8 -21
25 -23
-35 28
15 -40
26 -9
11 -13
1 36
-8 37
20 37
9 4
38 31
0 0 
59
51
56
56
56
55
56
54
56
54
54
53
56
57
57
60
52
55
52
54
59
56
54
51
51
53
55
56
59
53
52
56
56
54
53
53
54
53
56
57
56
53
53
56
56
52
57
56
56
55
59
52
56
56
60
55
56
54
56
56
56
55
52
53
54
52
55
56
59
52
52
54
53
59
56
54
55
52
52
54
60
59
54
57
56
52
54
56
56
54
54
53
54
53
57
56
57
56
52
56
57
56
53
56
52
56
51
56
57
57
51
57
57
56
53
56
56
59
55
56
60
51
57
56
59
59
51
56
56
56
55
56
54
56
54
54
53
56
57
57
60
52
55
52
54
59
56
54
51
51
53
55
56
59
53
52
56
56
54
53
53
54
53
56
57
56
53
53
56
56
52
57
56
56
55
59
52
56
56
60
55
56
54
56
56
56
55
52
53
54
52
55
56
59
52
52
54
53
59
56
54
55
52
52
54
60
59
54
57
56
52
54
56
56
54
54
53
54
53
57
56
57
56
52
56
57
56
53
56
52
56
51
56
57
57
51
57
57
56
53
56
56
59
55
56
60
51
57
56
59
